
Gurobi 9.5.0 (win64, Python) logging started Tue Aug  8 10:54:11 2023

Set parameter LogFile to value "data/small_training_set/problems/problem_0008_gurobi.log_gurobi.log"
Restricted license - for non-production use only - expires 2023-10-25

Gurobi 9.5.0 (win64, Python) logging started Wed Aug  9 17:33:36 2023

Set parameter LogFile to value "data/small_training_set/problems/problem_0008_gurobi.log_gurobi.log"
Restricted license - for non-production use only - expires 2023-10-25

Gurobi 9.5.0 (win64, Python) logging started Mon Aug 28 10:26:42 2023

Set parameter LogFile to value "data/small_training_set/problems/problem_0008_gurobi.log_gurobi.log"
Restricted license - for non-production use only - expires 2023-10-25

Gurobi 9.5.0 (win64, Python) logging started Mon Aug 28 14:27:03 2023

Set parameter LogFile to value "data/small_training_set/problems/problem_0008_gurobi.log_gurobi.log"
Restricted license - for non-production use only - expires 2023-10-25
